n = 22;
no_of_discarded_solutions = 1;
discarded_solutions = [|9, 4, 23, 6, 9, 23, 3, 16, 12, 0, 12, 8, 0, 6, 7, 3, 5, 0, 0, 18, 12, 4|];
req = [3, 3, 3, 3, 3, 3, 3, 3, 3, 3, 3, 3, 3, 3, 3, 4, 4, 4, 4, 4, 4, 4];
duration = [3, 4, 5, 6, 7, 8, 9, 10, 11, 12, 14, 15, 16, 17, 19, 3, 4, 5, 7, 8, 11, 14];
w = 26;